c Sample UF20 3-SAT problem - 20 variables, 91 clauses
c This is a randomly generated 3-SAT problem 
c from the uniform random 3-SAT distribution
c
p cnf 20 91
18 -7 10 0
-18 14 -10 0
-14 -18 10 0
7 14 18 0
-7 -14 10 0
-7 14 -18 0
7 -14 -10 0
-7 -14 -18 0
-18 -7 -10 0
18 7 -14 0
-18 7 14 0
18 -7 14 0
5 -11 -13 0
-5 11 13 0
5 11 -13 0
-5 -11 13 0
5 -11 13 0
-5 11 -13 0
-5 -11 -13 0
5 11 13 0
16 -3 8 0
-16 3 -8 0
16 3 8 0
-16 -3 -8 0
16 -3 -8 0
-16 3 8 0
-16 -3 8 0
16 3 -8 0
1 19 -15 0
-1 -19 15 0
1 -19 -15 0
-1 19 15 0
1 19 15 0
-1 -19 -15 0
-1 19 -15 0
1 -19 15 0
12 -6 4 0
-12 6 -4 0
12 6 4 0
-12 -6 -4 0
12 -6 -4 0
-12 6 4 0
-12 -6 4 0
12 6 -4 0
9 17 -2 0
-9 -17 2 0
9 -17 -2 0
-9 17 2 0
9 17 2 0
-9 -17 -2 0
-9 17 -2 0
9 -17 2 0
20 -1 3 0
-20 1 -3 0
20 1 3 0
-20 -1 -3 0
20 -1 -3 0
-20 1 3 0
-20 -1 3 0
20 1 -3 0
15 8 -11 0
-15 -8 11 0
15 -8 -11 0
-15 8 11 0
15 8 11 0
-15 -8 -11 0
-15 8 -11 0
15 -8 11 0
2 13 -16 0
-2 -13 16 0
2 -13 -16 0
-2 13 16 0
2 13 16 0
-2 -13 -16 0
-2 13 -16 0
2 -13 16 0
4 -9 6 0
-4 9 -6 0
4 9 6 0
-4 -9 -6 0
4 -9 -6 0
-4 9 6 0
-4 -9 6 0
4 9 -6 0
-20 -17 -5 0
20 17 5 0
-20 17 -5 0
20 -17 5 0
-20 -17 5 0
20 17 -5 0
20 -17 -5 0
-20 17 5 0
-19 12 7 0 